20
19	263	8	17	8
20	141	282	79	17
26	223	185	12	93
17	105	169	86	18
23	113	148	60	87
7	207	263	53	25
23	189	110	20	51
12	121	5	63	42
9	213	283	60	43
23	122	293	26	92
6	35	27	95	67
24	74	292	26	68
4	243	41	40	17
2	268	265	75	86
4	223	184	68	40
23	256	11	63	28
6	147	33	46	73
9	140	63	2	0
22	69	113	99	98
17	145	279	88	79
